<?xml version="1.0" encoding="UTF-8"?><osil xmlns="os.optimizationservices.org" xmlns:xsi="http://www.w3.org/2001/XMLSchema-instance" xsi:schemaLocation="os.optimizationservices.org http://www.optimizationservices.org/schemas/2.0/OSiL.xsd"><instanceHeader><name>ex1265</name></instanceHeader><instanceData><variables numberOfVariables="130"><var name="x1" ub="5"/><var name="x2" ub="5"/><var name="x3" ub="5"/><var name="x4" ub="5"/><var name="x5" ub="5"/><var name="x6" ub="5"/><var name="x7" ub="5"/><var name="x8" ub="5"/><var name="x9" ub="5"/><var name="x10" ub="5"/><var name="x11" ub="5"/><var name="x12" ub="5"/><var name="x13" ub="5"/><var name="x14" ub="5"/><var name="x15" ub="5"/><var name="x16" ub="5"/><var name="x17" ub="5"/><var name="x18" ub="5"/><var name="x19" ub="5"/><var name="x20" ub="5"/><var name="x21" ub="5"/><var name="x22" ub="5"/><var name="x23" ub="5"/><var name="x24" ub="5"/><var name="x25" ub="5"/><var name="b26" type="B" ub="1"/><var name="b27" type="B" ub="1"/><var name="b28" type="B" ub="1"/><var name="b29" type="B" ub="1"/><var name="b30" type="B" ub="1"/><var name="b31" type="B" ub="1"/><var name="b32" type="B" ub="1"/><var name="b33" type="B" ub="1"/><var name="b34" type="B" ub="1"/><var name="b35" type="B" ub="1"/><var name="b36" type="B" ub="1"/><var name="b37" type="B" ub="1"/><var name="b38" type="B" ub="1"/><var name="b39" type="B" ub="1"/><var name="b40" type="B" ub="1"/><var name="b41" type="B" ub="1"/><var name="b42" type="B" ub="1"/><var name="b43" type="B" ub="1"/><var name="b44" type="B" ub="1"/><var name="b45" type="B" ub="1"/><var name="b46" type="B" ub="1"/><var name="b47" type="B" ub="1"/><var name="b48" type="B" ub="1"/><var name="b49" type="B" ub="1"/><var name="b50" type="B" ub="1"/><var name="b51" type="B" ub="1"/><var name="b52" type="B" ub="1"/><var name="b53" type="B" ub="1"/><var name="b54" type="B" ub="1"/><var name="b55" type="B" ub="1"/><var name="b56" type="B" ub="1"/><var name="b57" type="B" ub="1"/><var name="b58" type="B" ub="1"/><var name="b59" type="B" ub="1"/><var name="b60" type="B" ub="1"/><var name="b61" type="B" ub="1"/><var name="b62" type="B" ub="1"/><var name="b63" type="B" ub="1"/><var name="b64" type="B" ub="1"/><var name="b65" type="B" ub="1"/><var name="b66" type="B" ub="1"/><var name="b67" type="B" ub="1"/><var name="b68" type="B" ub="1"/><var name="b69" type="B" ub="1"/><var name="b70" type="B" ub="1"/><var name="b71" type="B" ub="1"/><var name="b72" type="B" ub="1"/><var name="b73" type="B" ub="1"/><var name="b74" type="B" ub="1"/><var name="b75" type="B" ub="1"/><var name="b76" type="B" ub="1"/><var name="b77" type="B" ub="1"/><var name="b78" type="B" ub="1"/><var name="b79" type="B" ub="1"/><var name="b80" type="B" ub="1"/><var name="b81" type="B" ub="1"/><var name="b82" type="B" ub="1"/><var name="b83" type="B" ub="1"/><var name="b84" type="B" ub="1"/><var name="b85" type="B" ub="1"/><var name="b86" type="B" ub="1"/><var name="b87" type="B" ub="1"/><var name="b88" type="B" ub="1"/><var name="b89" type="B" ub="1"/><var name="b90" type="B" ub="1"/><var name="b91" type="B" ub="1"/><var name="b92" type="B" ub="1"/><var name="b93" type="B" ub="1"/><var name="b94" type="B" ub="1"/><var name="b95" type="B" ub="1"/><var name="b96" type="B" ub="1"/><var name="b97" type="B" ub="1"/><var name="b98" type="B" ub="1"/><var name="b99" type="B" ub="1"/><var name="b100" type="B" ub="1"/><var name="b101" type="B" ub="1"/><var name="b102" type="B" ub="1"/><var name="b103" type="B" ub="1"/><var name="b104" type="B" ub="1"/><var name="b105" type="B" ub="1"/><var name="x106" ub="15"/><var name="x107" ub="12"/><var name="x108" ub="9"/><var name="x109" ub="6"/><var name="x110" ub="6"/><var name="b111" type="B" ub="1"/><var name="b112" type="B" ub="1"/><var name="b113" type="B" ub="1"/><var name="b114" type="B" ub="1"/><var name="b115" type="B" ub="1"/><var name="b116" type="B" ub="1"/><var name="b117" type="B" ub="1"/><var name="b118" type="B" ub="1"/><var name="b119" type="B" ub="1"/><var name="b120" type="B" ub="1"/><var name="b121" type="B" ub="1"/><var name="b122" type="B" ub="1"/><var name="b123" type="B" ub="1"/><var name="b124" type="B" ub="1"/><var name="b125" type="B" ub="1"/><var name="b126" type="B" ub="1"/><var name="b127" type="B" ub="1"/><var name="b128" type="B" ub="1"/><var name="b129" type="B" ub="1"/><var name="b130" type="B" ub="1"/></variables><objectives><obj maxOrMin="min" name="defObj_objvar" numberOfObjCoef="10"><coef idx="100">.1</coef><coef idx="101">.2</coef><coef idx="102">.3</coef><coef idx="103">.4</coef><coef idx="104">.5</coef><coef idx="105">1</coef><coef idx="106">1</coef><coef idx="107">1</coef><coef idx="108">1</coef><coef idx="109">1</coef></obj></objectives><constraints numberOfConstraints="74"><con name="e2" lb="12"/><con name="e3" lb="6"/><con name="e4" lb="15"/><con name="e5" lb="6"/><con name="e6" lb="9"/><con name="e7" ub="0"/><con name="e8" ub="0"/><con name="e9" ub="0"/><con name="e10" ub="0"/><con name="e11" ub="0"/><con name="e12" ub="0"/><con name="e13" ub="0"/><con name="e14" ub="0"/><con name="e15" ub="0"/><con name="e16" ub="0"/><con name="e17" ub="0"/><con name="e18" ub="0"/><con name="e19" ub="0"/><con name="e20" ub="0"/><con name="e21" ub="0"/><con name="e22" ub="0"/><con name="e23" ub="0"/><con name="e24" ub="0"/><con name="e25" ub="0"/><con name="e26" ub="0"/><con name="e27" ub="0"/><con name="e28" ub="0"/><con name="e29" ub="0"/><con name="e30" ub="0"/><con name="e31" ub="0"/><con name="e32" ub="0"/><con name="e33" ub="0"/><con name="e34" ub="0"/><con name="e35" ub="0"/><con name="e36" ub="0"/><con name="e37" lb="10"/><con name="e38" ub="0"/><con name="e39" ub="0"/><con name="e40" ub="0"/><con name="e41" ub="0"/><con name="e42" ub="0"/><con name="e43" ub="0"/><con name="e44" ub="0"/><con name="e45" ub="0"/><con name="e46" lb="0" ub="0"/><con name="e47" lb="0" ub="0"/><con name="e48" lb="0" ub="0"/><con name="e49" lb="0" ub="0"/><con name="e50" lb="0" ub="0"/><con name="e51" lb="0" ub="0"/><con name="e52" lb="0" ub="0"/><con name="e53" lb="0" ub="0"/><con name="e54" lb="0" ub="0"/><con name="e55" lb="0" ub="0"/><con name="e56" lb="0" ub="0"/><con name="e57" lb="0" ub="0"/><con name="e58" lb="0" ub="0"/><con name="e59" lb="0" ub="0"/><con name="e60" lb="0" ub="0"/><con name="e61" lb="0" ub="0"/><con name="e62" lb="0" ub="0"/><con name="e63" lb="0" ub="0"/><con name="e64" lb="0" ub="0"/><con name="e65" lb="0" ub="0"/><con name="e66" lb="0" ub="0"/><con name="e67" lb="0" ub="0"/><con name="e68" lb="0" ub="0"/><con name="e69" lb="0" ub="0"/><con name="e70" lb="0" ub="0"/><con name="e71" lb="0" ub="0"/><con name="e72" lb="0" ub="0"/><con name="e73" lb="0" ub="0"/><con name="e74" lb="0" ub="0"/><con name="e75" lb="0" ub="0"/></constraints><linearConstraintCoefficients numberOfValues="286"><start><el mult="6">0</el><el mult="20" incr="6">6</el><el mult="10" incr="2">122</el><el mult="9" incr="2">145</el><el mult="25" incr="4">165</el><el mult="5" incr="5">266</el></start><colIdx><el mult="5" incr="5">0</el><el>100</el><el mult="5" incr="5">1</el><el>101</el><el mult="5" incr="5">2</el><el>102</el><el mult="5" incr="5">3</el><el>103</el><el mult="5" incr="5">4</el><el>104</el><el mult="5" incr="5">0</el><el>100</el><el mult="5" incr="5">1</el><el>101</el><el mult="5" incr="5">2</el><el>102</el><el mult="5" incr="5">3</el><el>103</el><el mult="5" incr="5">4</el><el>104</el><el mult="5" incr="5">0</el><el>100</el><el mult="5" incr="5">1</el><el>101</el><el mult="5" incr="5">2</el><el>102</el><el mult="5" incr="5">3</el><el>103</el><el mult="5" incr="5">4</el><el>104</el><el mult="5" incr="5">0</el><el>100</el><el mult="5" incr="5">1</el><el>101</el><el mult="5" incr="5">2</el><el>102</el><el mult="5" incr="5">3</el><el>103</el><el mult="5" incr="5">4</el><el>104</el><el>100</el><el>105</el><el>101</el><el>106</el><el>102</el><el>107</el><el>103</el><el>108</el><el>104</el><el>109</el><el>100</el><el>105</el><el>101</el><el>106</el><el>102</el><el>107</el><el>103</el><el>108</el><el>104</el><el>109</el><el mult="5" incr="1">105</el><el>100</el><el mult="2">101</el><el mult="2">102</el><el mult="2">103</el><el mult="3" incr="1">104</el><el>106</el><el mult="2">107</el><el mult="2">108</el><el>109</el><el>0</el><el mult="3" incr="1">25</el><el>1</el><el mult="3" incr="1">28</el><el>2</el><el mult="3" incr="1">31</el><el>3</el><el mult="3" incr="1">34</el><el>4</el><el mult="3" incr="1">37</el><el>5</el><el mult="3" incr="1">40</el><el>6</el><el mult="3" incr="1">43</el><el>7</el><el mult="3" incr="1">46</el><el>8</el><el mult="3" incr="1">49</el><el>9</el><el mult="3" incr="1">52</el><el>10</el><el mult="3" incr="1">55</el><el>11</el><el mult="3" incr="1">58</el><el>12</el><el mult="3" incr="1">61</el><el>13</el><el mult="3" incr="1">64</el><el>14</el><el mult="3" incr="1">67</el><el>15</el><el mult="3" incr="1">70</el><el>16</el><el mult="3" incr="1">73</el><el>17</el><el mult="3" incr="1">76</el><el>18</el><el mult="3" incr="1">79</el><el>19</el><el mult="3" incr="1">82</el><el>20</el><el mult="3" incr="1">85</el><el>21</el><el mult="3" incr="1">88</el><el>22</el><el mult="3" incr="1">91</el><el>23</el><el mult="3" incr="1">94</el><el>24</el><el mult="3" incr="1">97</el><el>105</el><el mult="4" incr="1">110</el><el>106</el><el mult="4" incr="1">114</el><el>107</el><el mult="4" incr="1">118</el><el>108</el><el mult="4" incr="1">122</el><el>109</el><el mult="4" incr="1">126</el></colIdx><value><el>-3.3e2</el><el>-3.6e2</el><el>-3.7e2</el><el>-415</el><el>-435</el><el>1.8e3</el><el>-3.3e2</el><el>-3.6e2</el><el>-3.7e2</el><el>-415</el><el>-435</el><el>1.8e3</el><el>-3.3e2</el><el>-3.6e2</el><el>-3.7e2</el><el>-415</el><el>-435</el><el>1.8e3</el><el>-3.3e2</el><el>-3.6e2</el><el>-3.7e2</el><el>-415</el><el>-435</el><el>1.8e3</el><el>-3.3e2</el><el>-3.6e2</el><el>-3.7e2</el><el>-415</el><el>-435</el><el>1.8e3</el><el>3.3e2</el><el>3.6e2</el><el>3.7e2</el><el>415</el><el>435</el><el>-2e3</el><el>3.3e2</el><el>3.6e2</el><el>3.7e2</el><el>415</el><el>435</el><el>-2e3</el><el>3.3e2</el><el>3.6e2</el><el>3.7e2</el><el>415</el><el>435</el><el>-2e3</el><el>3.3e2</el><el>3.6e2</el><el>3.7e2</el><el>415</el><el>435</el><el>-2e3</el><el>3.3e2</el><el>3.6e2</el><el>3.7e2</el><el>415</el><el>435</el><el>-2e3</el><el mult="5">-1</el><el>1</el><el mult="5">-1</el><el>1</el><el mult="5">-1</el><el>1</el><el mult="5">-1</el><el>1</el><el mult="5">-1</el><el mult="6">1</el><el>-5</el><el mult="5">1</el><el>-5</el><el mult="5">1</el><el>-5</el><el mult="5">1</el><el>-5</el><el mult="5">1</el><el>-5</el><el>1</el><el>-1</el><el>1</el><el>-1</el><el>1</el><el>-1</el><el>1</el><el>-1</el><el>1</el><el>-1</el><el>-15</el><el>1</el><el>-12</el><el>1</el><el>-9</el><el>1</el><el>-6</el><el>1</el><el>-6</el><el mult="6">1</el><el>-1</el><el>1</el><el>-1</el><el>1</el><el>-1</el><el>1</el><el>-1</el><el>1</el><el>-1</el><el>1</el><el>-1</el><el>1</el><el>-1</el><el>1</el><el>-1</el><el mult="2">1</el><el>-1</el><el>-2</el><el>-4</el><el>1</el><el>-1</el><el>-2</el><el>-4</el><el>1</el><el>-1</el><el>-2</el><el>-4</el><el>1</el><el>-1</el><el>-2</el><el>-4</el><el>1</el><el>-1</el><el>-2</el><el>-4</el><el>1</el><el>-1</el><el>-2</el><el>-4</el><el>1</el><el>-1</el><el>-2</el><el>-4</el><el>1</el><el>-1</el><el>-2</el><el>-4</el><el>1</el><el>-1</el><el>-2</el><el>-4</el><el>1</el><el>-1</el><el>-2</el><el>-4</el><el>1</el><el>-1</el><el>-2</el><el>-4</el><el>1</el><el>-1</el><el>-2</el><el>-4</el><el>1</el><el>-1</el><el>-2</el><el>-4</el><el>1</el><el>-1</el><el>-2</el><el>-4</el><el>1</el><el>-1</el><el>-2</el><el>-4</el><el>1</el><el>-1</el><el>-2</el><el>-4</el><el>1</el><el>-1</el><el>-2</el><el>-4</el><el>1</el><el>-1</el><el>-2</el><el>-4</el><el>1</el><el>-1</el><el>-2</el><el>-4</el><el>1</el><el>-1</el><el>-2</el><el>-4</el><el>1</el><el>-1</el><el>-2</el><el>-4</el><el>1</el><el>-1</el><el>-2</el><el>-4</el><el>1</el><el>-1</el><el>-2</el><el>-4</el><el>1</el><el>-1</el><el>-2</el><el>-4</el><el>1</el><el>-1</el><el>-2</el><el>-4</el><el>1</el><el>-1</el><el>-2</el><el>-4</el><el>-8</el><el>1</el><el>-1</el><el>-2</el><el>-4</el><el>-8</el><el>1</el><el>-1</el><el>-2</el><el>-4</el><el>-8</el><el>1</el><el>-1</el><el>-2</el><el>-4</el><el>-8</el><el>1</el><el>-1</el><el>-2</el><el>-4</el><el>-8</el></value></linearConstraintCoefficients><quadraticCoefficients numberOfQuadraticTerms="25"><qTerm idx="0" idxOne="0" idxTwo="105" coef="1"/><qTerm idx="0" idxOne="1" idxTwo="106" coef="1"/><qTerm idx="0" idxOne="2" idxTwo="107" coef="1"/><qTerm idx="0" idxOne="3" idxTwo="108" coef="1"/><qTerm idx="0" idxOne="4" idxTwo="109" coef="1"/><qTerm idx="1" idxOne="5" idxTwo="105" coef="1"/><qTerm idx="1" idxOne="6" idxTwo="106" coef="1"/><qTerm idx="1" idxOne="7" idxTwo="107" coef="1"/><qTerm idx="1" idxOne="8" idxTwo="108" coef="1"/><qTerm idx="1" idxOne="9" idxTwo="109" coef="1"/><qTerm idx="2" idxOne="10" idxTwo="105" coef="1"/><qTerm idx="2" idxOne="11" idxTwo="106" coef="1"/><qTerm idx="2" idxOne="12" idxTwo="107" coef="1"/><qTerm idx="2" idxOne="13" idxTwo="108" coef="1"/><qTerm idx="2" idxOne="14" idxTwo="109" coef="1"/><qTerm idx="3" idxOne="15" idxTwo="105" coef="1"/><qTerm idx="3" idxOne="16" idxTwo="106" coef="1"/><qTerm idx="3" idxOne="17" idxTwo="107" coef="1"/><qTerm idx="3" idxOne="18" idxTwo="108" coef="1"/><qTerm idx="3" idxOne="19" idxTwo="109" coef="1"/><qTerm idx="4" idxOne="20" idxTwo="105" coef="1"/><qTerm idx="4" idxOne="21" idxTwo="106" coef="1"/><qTerm idx="4" idxOne="22" idxTwo="107" coef="1"/><qTerm idx="4" idxOne="23" idxTwo="108" coef="1"/><qTerm idx="4" idxOne="24" idxTwo="109" coef="1"/></quadraticCoefficients></instanceData></osil>